multiobj/instances/reallike/Ter-rl-5-2-0.00-0.5-3.in
5 2
0 59 64 103 62 
59 0 70 49 40 
64 70 0 118 33 
103 49 118 0 85 
62 40 33 85 0 
0 114 0 99829 1173 
114 0 0 0 59142 
0 0 0 0 0 
99829 0 0 0 0 
1173 59142 0 0 0 
0 0 0 0 0 
0 0 491 375 0 
0 491 0 70762 1 
0 375 70762 0 2576 
0 0 1 2576 0 
