multiobj/solutions/reallike/Ter-rl-5-2-0.00-0.5-3.out
9 2
4 3 0 2 1 
12497850 9607940 
2 3 0 4 1 
12575754 9145582 
3 2 0 1 4 
13912928 8671468 
4 0 3 1 2 
15648050 7440948 
4 2 3 1 0 
15709472 7407226 
0 2 3 1 4 
15843238 7309302 
3 2 4 1 0 
17621960 6049958 
0 3 2 4 1 
18336610 5056138 
3 0 2 4 1 
24088124 4985860 
